Route #1: 26
Route #2: 22 35 51 57 62 52 23 39
Route #3: 53 55 32 58 14 40 50 17
Route #4: 10 47 4 18 1 46 31 38 43
Route #5: 16 61 42 9 41 3
Route #6: 13 49 8 24 59 27 45 5
Route #7: 21 6 37 28 12 15
Route #8: 20 54 60 25 7
Route #9: 11 33 44 56
Route #10: 36 48 34 2 30 29 19
Cost 1687.9633015172565